
Gurobi 9.5.2 (mac64[arm]) logging started Fri Apr 28 12:59:03 2023

Set parameter LogFile to value "Java/output/pure_mip_2_machine/scenario_seed_3_nJob_20_machineCount_2/mip_increment_2/log.txt"
Gurobi Optimizer version 9.5.2 build v9.5.2rc0 (mac64[arm])
Thread count: 8 physical cores, 8 logical processors, using up to 8 threads
Optimize a model with 570 rows, 4400 columns and 30359 nonzeros
Model fingerprint: 0x6d313bef
Variable types: 0 continuous, 4400 integer (4400 binary)
Coefficient statistics:
  Matrix range     [1e+00, 1e+02]
  Objective range  [5e+00, 8e+05]
  Bounds range     [1e+00, 1e+00]
  RHS range        [1e+00, 1e+00]
Presolve removed 82 rows and 1313 columns
Presolve time: 0.03s
Presolved: 488 rows, 3087 columns, 21323 nonzeros
Variable types: 0 continuous, 3087 integer (3087 binary)

Root relaxation: objective 2.543145e+05, 2707 iterations, 0.07 seconds (0.12 work units)

    Nodes    |    Current Node    |     Objective Bounds      |     Work
 Expl Unexpl |  Obj  Depth IntInf | Incumbent    BestBd   Gap | It/Node Time

     0     0 254314.493    0  164          - 254314.493      -     -    0s
H    0     0                    1722997.0000 254709.533  85.2%     -    0s
H    0     0                    1236876.0000 254709.533  79.4%     -    0s
H    0     0                    1091340.0000 254709.533  76.7%     -    0s
H    0     0                    422662.00000 264903.914  37.3%     -    0s
H    0     0                    422550.00000 264903.914  37.3%     -    0s
     0     0 264903.914    0  211 422550.000 264903.914  37.3%     -    0s
     0     0 265102.079    0  210 422550.000 265102.079  37.3%     -    0s
H    0     0                    414326.00000 273774.231  33.9%     -    0s
     0     0 273774.231    0  222 414326.000 273774.231  33.9%     -    0s
H    0     0                    414324.00000 273774.231  33.9%     -    0s
H    0     0                    343618.00000 273774.231  20.3%     -    0s
     0     0 275577.847    0  221 343618.000 275577.847  19.8%     -    0s
     0     0 275807.318    0  209 343618.000 275807.318  19.7%     -    0s
     0     0 275879.879    0  212 343618.000 275879.879  19.7%     -    0s
     0     0 275880.486    0  216 343618.000 275880.486  19.7%     -    0s
     0     0 283292.074    0  217 343618.000 283292.074  17.6%     -    0s
H    0     0                    316502.00000 283292.074  10.5%     -    0s
     0     0 286131.427    0  227 316502.000 286131.427  9.60%     -    0s
     0     0 286650.847    0  222 316502.000 286650.847  9.43%     -    0s
     0     0 286678.447    0  243 316502.000 286678.447  9.42%     -    0s
     0     0 286680.515    0  242 316502.000 286680.515  9.42%     -    0s
     0     0 292748.731    0  243 316502.000 292748.731  7.50%     -    0s
H    0     0                    313934.00000 292748.731  6.75%     -    0s
H    0     0                    306108.00000 292748.731  4.36%     -    0s
     0     0 293245.898    0  250 306108.000 293245.898  4.20%     -    0s
     0     0 293369.659    0  251 306108.000 293369.659  4.16%     -    0s
     0     0 293374.195    0  241 306108.000 293374.195  4.16%     -    0s
     0     0 293746.854    0  265 306108.000 293746.854  4.04%     -    1s
     0     0 293746.854    0  133 306108.000 293746.854  4.04%     -    1s
     0     0 293746.854    0  215 306108.000 293746.854  4.04%     -    1s
H    0     0                    304502.00000 293746.854  3.53%     -    1s
     0     0 293746.854    0  241 304502.000 293746.854  3.53%     -    1s
     0     0 294355.014    0  244 304502.000 294355.014  3.33%     -    1s
     0     0 294550.501    0  239 304502.000 294550.501  3.27%     -    1s
     0     0 294553.762    0  245 304502.000 294553.762  3.27%     -    1s
     0     0 295168.438    0  248 304502.000 295168.438  3.07%     -    1s
     0     0 295178.319    0  172 304502.000 295178.319  3.06%     -    1s
     0     0 295605.310    0  215 304502.000 295605.310  2.92%     -    1s
     0     0 295842.255    0  197 304502.000 295842.255  2.84%     -    1s
     0     0 295877.500    0   48 304502.000 295877.500  2.83%     -    1s
     0     0 295877.500    0   50 304502.000 295877.500  2.83%     -    1s
     0     0 296459.277    0  216 304502.000 296459.277  2.64%     -    1s
     0     0 296488.948    0  216 304502.000 296488.948  2.63%     -    1s
     0     0 296488.948    0  218 304502.000 296488.948  2.63%     -    1s
     0     0 296621.937    0  208 304502.000 296621.937  2.59%     -    1s
     0     0 296621.937    0  196 304502.000 296621.937  2.59%     -    1s
H    0     0                    298958.00000 296621.937  0.78%     -    1s
H    0     0                    298507.00000 296621.937  0.63%     -    1s
     0     0 296634.748    0  100 298507.000 296634.748  0.63%     -    1s
     0     0 296634.748    0  127 298507.000 296634.748  0.63%     -    1s
H    0     0                    298281.00000 296634.748  0.55%     -    1s
     0     0 297430.194    0   76 298281.000 297430.194  0.29%     -    1s
     0     0 297430.194    0   74 298281.000 297430.194  0.29%     -    1s
     0     0 297442.571    0   73 298281.000 297442.571  0.28%     -    1s
     0     0 297457.333    0   68 298281.000 297457.333  0.28%     -    1s
     0     0 297705.333    0   61 298281.000 297705.333  0.19%     -    1s
     0     0 297705.333    0   18 298281.000 297705.333  0.19%     -    1s
     0     0 297973.000    0   17 298281.000 297973.000  0.10%     -    1s

Cutting planes:
  Gomory: 7
  Lift-and-project: 10
  MIR: 4
  GUB cover: 5
  Mod-K: 11
  RLT: 2

Explored 1 nodes (18542 simplex iterations) in 1.70 seconds (2.34 work units)
Thread count was 8 (of 8 available processors)

Solution count 10: 298281 298281 298507 ... 316502

Optimal solution found (tolerance 1.00e-04)
Best objective 2.982810000000e+05, best bound 2.982810000000e+05, gap 0.0000%
